2025-10-21 13:36:22,902 - INFO - 📌 第一个 epoch：默认所有模块使用 checkpoint
2025-10-21 13:36:26,280 - INFO - Epoch 1 completed in 3.386658 seconds
2025-10-21 13:36:27,338 - INFO - torch.cuda.max_memory_reserved() : 4.37890625
2025-10-21 13:36:30,150 - INFO - 
[🔁 拟合反向传播时间模型]
2025-10-21 13:36:30,150 - INFO - 总反向传播时间: 2.788598s
2025-10-21 13:36:30,150 - INFO - 拟合模型: backward_total ≈ 2 × (A + B) + b
2025-10-21 13:36:30,151 - INFO - A = 2.122882, B = 0.199074, b = 0.466643s
2025-10-21 13:36:30,176 - INFO - Set parameter LicenseID to value 2706656
2025-10-21 13:36:30,181 - INFO - Set parameter LogToConsole to value 1
2025-10-21 13:36:30,181 - INFO - Set parameter LogFile to value ""
2025-10-21 13:36:30,181 - INFO - Set parameter Threads to value 12
2025-10-21 13:36:30,181 - INFO - Set parameter TimeLimit to value 3600
2025-10-21 13:36:30,182 - INFO - Set parameter OptimalityTol to value 0.0001
2025-10-21 13:36:30,182 - INFO - Set parameter IntFeasTol to value 1e-05
2025-10-21 13:36:30,182 - INFO - Set parameter StartNodeLimit to value 10000000
2025-10-21 13:36:30,235 - INFO - Set parameter TimeLimit to value 3600
2025-10-21 13:36:30,235 - INFO - 
2025-10-21 13:36:30,235 - INFO - 
2025-10-21 13:36:30,235 - INFO - Restarting solve
2025-10-21 13:36:30,235 - INFO - 
2025-10-21 13:36:30,236 - INFO - 
2025-10-21 13:36:30,237 - INFO - Gurobi Optimizer version 12.0.3 build v12.0.3rc0 (linux64 - "Ubuntu 20.04.6 LTS")
2025-10-21 13:36:30,237 - INFO - 
2025-10-21 13:36:30,237 - INFO - CPU model: Intel(R) Xeon(R) Platinum 8260 CPU @ 2.40GHz, instruction set [SSE2|AVX|AVX2|AVX512]
2025-10-21 13:36:30,237 - INFO - Thread count: 48 physical cores, 96 logical processors, using up to 12 threads
2025-10-21 13:36:30,237 - INFO - 
2025-10-21 13:36:30,237 - INFO - Non-default parameters:
2025-10-21 13:36:30,237 - INFO - TimeLimit  3600
2025-10-21 13:36:30,237 - INFO - OptimalityTol  0.0001
2025-10-21 13:36:30,237 - INFO - StartNodeLimit  10000000
2025-10-21 13:36:30,237 - INFO - Threads  12
2025-10-21 13:36:30,238 - INFO - 
2025-10-21 13:36:30,238 - INFO - Optimize a model with 5603 rows, 3584 columns and 15200 nonzeros
2025-10-21 13:36:30,238 - INFO - Model fingerprint: 0x87e4bfd2
2025-10-21 13:36:30,238 - INFO - Variable types: 1024 continuous, 2560 integer (2560 binary)
2025-10-21 13:36:30,238 - INFO - Coefficient statistics:
2025-10-21 13:36:30,238 - INFO -   Matrix range     [1e+00, 2e+15]
2025-10-21 13:36:30,238 - INFO -   Objective range  [6e+04, 6e+05]
2025-10-21 13:36:30,238 - INFO -   Bounds range     [1e+00, 3e+15]
2025-10-21 13:36:30,238 - INFO -   RHS range        [1e+00, 3e+15]
2025-10-21 13:36:30,238 - INFO - Warning: Model contains large matrix coefficient range
2025-10-21 13:36:30,238 - INFO - Warning: Model contains large rhs
2025-10-21 13:36:30,238 - INFO - Warning: Model contains large bounds
2025-10-21 13:36:30,238 - INFO -          Consider reformulating model or setting NumericFocus parameter
2025-10-21 13:36:30,238 - INFO -          to avoid numerical issues.
2025-10-21 13:36:30,252 - INFO - Presolve removed 4283 rows and 1964 columns
2025-10-21 13:36:30,252 - INFO - Presolve time: 0.01s
2025-10-21 13:36:30,252 - INFO - Presolved: 1320 rows, 1620 columns, 4514 nonzeros
2025-10-21 13:36:30,253 - INFO - Variable types: 0 continuous, 1620 integer (1095 binary)
2025-10-21 13:36:30,265 - INFO - 
2025-10-21 13:36:30,265 - INFO - Root relaxation: objective 1.201764e+07, 525 iterations, 0.01 seconds (0.01 work units)
2025-10-21 13:36:30,271 - INFO - 
2025-10-21 13:36:30,271 - INFO -     Nodes    |    Current Node    |     Objective Bounds      |     Work
2025-10-21 13:36:30,271 - INFO -  Expl Unexpl |  Obj  Depth IntInf | Incumbent    BestBd   Gap | It/Node Time
2025-10-21 13:36:30,271 - INFO - 
2025-10-21 13:36:30,271 - INFO -      0     0 1.2018e+07    0  108          - 1.2018e+07      -     -    0s
2025-10-21 13:36:30,307 - INFO - H    0     0                    1.410817e+07 1.2018e+07  14.8%     -    0s
2025-10-21 13:36:30,310 - INFO -      0     0 1.2113e+07    0  143 1.4108e+07 1.2113e+07  14.1%     -    0s
2025-10-21 13:36:30,334 - INFO -      0     0 1.2130e+07    0  372 1.4108e+07 1.2130e+07  14.0%     -    0s
2025-10-21 13:36:30,340 - INFO -      0     0 1.2130e+07    0  317 1.4108e+07 1.2130e+07  14.0%     -    0s
2025-10-21 13:36:30,341 - INFO -      0     0 1.2130e+07    0  356 1.4108e+07 1.2130e+07  14.0%     -    0s
2025-10-21 13:36:30,354 - INFO -      0     0 1.2133e+07    0  381 1.4108e+07 1.2133e+07  14.0%     -    0s
2025-10-21 13:36:30,363 - INFO -      0     0 1.2133e+07    0  342 1.4108e+07 1.2133e+07  14.0%     -    0s
2025-10-21 13:36:30,379 - INFO -      0     0 1.2133e+07    0  367 1.4108e+07 1.2133e+07  14.0%     -    0s
2025-10-21 13:36:30,394 - INFO -      0     2 1.2133e+07    0  373 1.4108e+07 1.2133e+07  14.0%     -    0s
2025-10-21 13:36:30,476 - INFO - H  285   275                    1.400824e+07 1.2137e+07  13.4%  11.2    0s
2025-10-21 13:36:30,476 - INFO - H  320   275                    1.356316e+07 1.2137e+07  10.5%  11.1    0s
2025-10-21 13:36:30,515 - INFO - H  397   405                    1.319824e+07 1.2143e+07  8.00%  10.5    0s
2025-10-21 13:36:30,515 - INFO - H  411   405                    1.249927e+07 1.2143e+07  2.85%  10.3    0s
2025-10-21 13:36:30,516 - INFO - H  435   405                    1.237154e+07 1.2143e+07  1.85%  10.1    0s
2025-10-21 13:36:30,521 - INFO - 
2025-10-21 13:36:30,521 - INFO - Cutting planes:
2025-10-21 13:36:30,521 - INFO -   Cover: 49
2025-10-21 13:36:30,521 - INFO -   GUB cover: 4
2025-10-21 13:36:30,521 - INFO - 
2025-10-21 13:36:30,521 - INFO - Explored 573 nodes (5630 simplex iterations) in 0.28 seconds (0.18 work units)
2025-10-21 13:36:30,521 - INFO - Thread count was 12 (of 96 available processors)
2025-10-21 13:36:30,521 - INFO - 
2025-10-21 13:36:30,521 - INFO - Solution count 6: 1.23715e+07 1.24993e+07 1.31982e+07 ... 1.41082e+07
2025-10-21 13:36:30,521 - INFO - 
2025-10-21 13:36:30,522 - INFO - Optimal solution found (tolerance 1.00e-04)
2025-10-21 13:36:30,522 - INFO - Best objective 1.237154500000e+07, best bound 1.237154500000e+07, gap 0.0000%
2025-10-21 13:36:30,533 - INFO - 规划前的显存GB：3.0
2025-10-21 13:36:30,533 - INFO - 规划后的显存GB：2.361301898956299
2025-10-21 13:36:30,533 - INFO - ✅ 最优策略：[1, 0, 1, 1, 0, 0, 0, 0, 1, 0, 0, 0, 0, 0, 0, 0]
2025-10-21 13:36:30,533 - INFO - 📌 checkpoint 的欧氏长度:, [80, 202, 242, 283, 324]
2025-10-21 13:36:30,533 - INFO - 📌 checkpoint 的余弦长度:, [80, 121, 161, 202, 242, 283, 324]
2025-10-21 13:36:30,533 - INFO - 💾 最终显存峰值：%.2f MB % 8692.373695373535
2025-10-21 13:36:30,534 - INFO - Epoch 2 completed in 3.195178 seconds
2025-10-21 13:36:30,534 - INFO - torch.cuda.max_memory_reserved() : 4.37890625
2025-10-21 13:36:33,151 - INFO - Epoch 3 completed in 2.616654 seconds
2025-10-21 13:36:33,151 - INFO - 
====================== [第1个 Epoch 收集统计数据] ======================
2025-10-21 13:36:33,152 - INFO - 
🔍 EUCLIDEAN modules:
2025-10-21 13:36:33,152 - INFO - [Shapelet  40] forward_avg=0.003968s over 12 calls | peak=343.57MB | final=0.00MB
2025-10-21 13:36:33,152 - INFO - [Shapelet  80] forward_avg=0.004173s over 12 calls | peak=601.19MB | final=0.00MB
2025-10-21 13:36:33,152 - INFO - [Shapelet 121] forward_avg=0.005172s over 12 calls | peak=791.72MB | final=0.00MB
2025-10-21 13:36:33,152 - INFO - [Shapelet 161] forward_avg=0.005450s over 12 calls | peak=905.43MB | final=0.00MB
2025-10-21 13:36:33,152 - INFO - [Shapelet 202] forward_avg=0.005722s over 12 calls | peak=946.48MB | final=0.00MB
2025-10-21 13:36:33,152 - INFO - [Shapelet 242] forward_avg=0.005326s over 12 calls | peak=915.59MB | final=0.00MB
2025-10-21 13:36:33,152 - INFO - [Shapelet 283] forward_avg=0.004552s over 12 calls | peak=810.62MB | final=0.00MB
2025-10-21 13:36:33,153 - INFO - [Shapelet 324] forward_avg=0.004368s over 12 calls | peak=628.61MB | final=0.00MB
2025-10-21 13:36:33,153 - INFO - 
🔍 COSINE modules:
2025-10-21 13:36:33,153 - INFO - [Shapelet  40] forward_avg=0.002185s over 12 calls | peak=220.75MB | final=0.00MB
2025-10-21 13:36:33,153 - INFO - [Shapelet  80] forward_avg=0.002048s over 12 calls | peak=390.83MB | final=0.00MB
2025-10-21 13:36:33,153 - INFO - [Shapelet 121] forward_avg=0.002594s over 12 calls | peak=515.69MB | final=0.00MB
2025-10-21 13:36:33,153 - INFO - [Shapelet 161] forward_avg=0.002923s over 12 calls | peak=589.82MB | final=0.00MB
2025-10-21 13:36:33,153 - INFO - [Shapelet 202] forward_avg=0.003090s over 12 calls | peak=615.21MB | final=0.00MB
2025-10-21 13:36:33,153 - INFO - [Shapelet 242] forward_avg=0.002921s over 12 calls | peak=592.28MB | final=0.00MB
2025-10-21 13:36:33,153 - INFO - [Shapelet 283] forward_avg=0.002332s over 12 calls | peak=520.11MB | final=0.00MB
2025-10-21 13:36:33,153 - INFO - [Shapelet 324] forward_avg=0.002144s over 12 calls | peak=396.44MB | final=0.00MB
2025-10-21 13:36:33,154 - INFO - 
🔍 CROSS modules:
2025-10-21 13:36:33,154 - INFO - [Shapelet  40] forward_avg=0.002775s over 12 calls
2025-10-21 13:36:33,154 - INFO - [Shapelet  80] forward_avg=0.000577s over 12 calls
2025-10-21 13:36:33,154 - INFO - [Shapelet 121] forward_avg=0.000645s over 12 calls
2025-10-21 13:36:33,154 - INFO - [Shapelet 161] forward_avg=0.000753s over 12 calls
2025-10-21 13:36:33,154 - INFO - [Shapelet 202] forward_avg=0.000853s over 12 calls
2025-10-21 13:36:33,154 - INFO - [Shapelet 242] forward_avg=0.000820s over 12 calls
2025-10-21 13:36:33,154 - INFO - [Shapelet 283] forward_avg=0.000888s over 12 calls
2025-10-21 13:36:33,154 - INFO - [Shapelet 324] forward_avg=0.000982s over 12 calls
2025-10-21 13:36:33,154 - INFO - 
💾 模型第一次反向传播阶段的显存峰值（所有模块中的最大值）: 3085.13 MB
2025-10-21 13:36:33,155 - INFO - 
💾 模型初始显存: 23.05 MB
2025-10-21 13:36:33,155 - INFO - =======================================================================

2025-10-21 13:36:33,155 - INFO - torch.cuda.max_memory_reserved() : 4.37890625
2025-10-21 13:36:35,694 - INFO - Epoch 4 completed in 2.537344 seconds
2025-10-21 13:36:35,694 - INFO - torch.cuda.max_memory_reserved() : 4.37890625
2025-10-21 13:36:38,344 - INFO - Epoch 5 completed in 2.648562 seconds
2025-10-21 13:36:38,345 - INFO - torch.cuda.max_memory_reserved() : 4.37890625
2025-10-21 13:36:41,057 - INFO - Epoch 6 completed in 2.710495 seconds
2025-10-21 13:36:41,057 - INFO - torch.cuda.max_memory_reserved() : 4.37890625
2025-10-21 13:36:43,680 - INFO - Epoch 7 completed in 2.621958 seconds
2025-10-21 13:36:43,680 - INFO - torch.cuda.max_memory_reserved() : 4.37890625
2025-10-21 13:36:46,286 - INFO - Epoch 8 completed in 2.604240 seconds
2025-10-21 13:36:46,287 - INFO - torch.cuda.max_memory_reserved() : 4.37890625
2025-10-21 13:36:48,853 - INFO - Epoch 9 completed in 2.565346 seconds
2025-10-21 13:36:48,854 - INFO - torch.cuda.max_memory_reserved() : 4.37890625
2025-10-21 13:36:51,482 - INFO - Epoch 10 completed in 2.626273 seconds
2025-10-21 13:36:52,533 - INFO - torch.cuda.max_memory_reserved() : 4.37890625
2025-10-21 13:36:52,534 - INFO - !!!采用策略后的几个epoch 平均时间:2.616358995437622
2025-10-21 13:36:52,534 - INFO - 



